; CALLDATASIZE MSIZE SWAP1 MSIZE ADD => MSIZE MSIZE CALLDATASIZE ADD
(set-option :produce-proofs true)
; 
(set-info :status unknown)
(declare-fun storage_t ((_ BitVec 256) (_ BitVec 256) Int (_ BitVec 256)) (_ BitVec 256))
(declare-fun storage_s ((_ BitVec 256) (_ BitVec 256) Int (_ BitVec 256)) (_ BitVec 256))
(declare-fun exc_halt_t (Int) Bool)
(declare-fun exc_halt_s (Int) Bool)
(declare-fun stack_t ((_ BitVec 256) (_ BitVec 256) Int (_ BitVec 6)) (_ BitVec 256))
(declare-fun stack_s ((_ BitVec 256) (_ BitVec 256) Int (_ BitVec 6)) (_ BitVec 256))
(declare-fun sc_t (Int) (_ BitVec 6))
(declare-fun sc_s (Int) (_ BitVec 6))
(declare-fun used_gas_t ((_ BitVec 256) (_ BitVec 256) Int) Int)
(declare-fun used_gas_s ((_ BitVec 256) (_ BitVec 256) Int) Int)
(assert
 (exists ((x_CALLDATASIZE (_ BitVec 256)) (x_MSIZE (_ BitVec 256)) )(let (($x9680 (forall ((w (_ BitVec 256)) )(let ((?x10623 (storage_t x_CALLDATASIZE x_MSIZE 4 w)))
 (let ((?x5103 (storage_s x_CALLDATASIZE x_MSIZE 5 w)))
 (= ?x5103 ?x10623))))
 ))
 (let (($x7722 (exc_halt_t 4)))
 (let (($x11317 (exc_halt_s 5)))
 (let (($x2686 (= $x11317 $x7722)))
 (let (($x9692 (forall ((n (_ BitVec 6)) )(let ((?x5787 (stack_t x_CALLDATASIZE x_MSIZE 4 n)))
 (let ((?x2987 (stack_s x_CALLDATASIZE x_MSIZE 5 n)))
 (let (($x8383 (= ?x2987 ?x5787)))
 (let ((?x11631 (sc_t 4)))
 (let (($x619 (bvsle ?x11631 n)))
 (or $x619 $x8383)))))))
 ))
 (let ((?x11631 (sc_t 4)))
 (let ((?x4319 (sc_s 5)))
 (let (($x2067 (= ?x4319 ?x11631)))
 (let ((?x4675 (used_gas_t x_CALLDATASIZE x_MSIZE 0)))
 (let ((?x4463 (used_gas_s x_CALLDATASIZE x_MSIZE 0)))
 (let (($x5766 (= ?x4463 ?x4675)))
 (let (($x6156 (forall ((w (_ BitVec 256)) )(let ((?x2542 (storage_t x_CALLDATASIZE x_MSIZE 0 w)))
 (let ((?x8304 (storage_s x_CALLDATASIZE x_MSIZE 0 w)))
 (= ?x8304 ?x2542))))
 ))
 (let (($x56 (exc_halt_t 0)))
 (let (($x57 (exc_halt_s 0)))
 (let (($x58 (= $x57 $x56)))
 (let (($x6230 (forall ((n (_ BitVec 6)) )(let ((?x9015 (stack_t x_CALLDATASIZE x_MSIZE 0 n)))
 (let ((?x2323 (stack_s x_CALLDATASIZE x_MSIZE 0 n)))
 (let (($x2829 (= ?x2323 ?x9015)))
 (let ((?x63 (sc_t 0)))
 (let (($x2525 (bvsle ?x63 n)))
 (or $x2525 $x2829)))))))
 ))
 (let ((?x63 (sc_t 0)))
 (let ((?x72 (sc_s 0)))
 (let (($x73 (= ?x72 ?x63)))
 (let (($x1827 (= $x7722 (or (exc_halt_t 3) (not (bvsle (_ bv0 6) (bvadd (_ bv62 6) (sc_t 3))))))))
 (let (($x424 (forall ((w (_ BitVec 256)) )(let ((?x6234 (storage_t x_CALLDATASIZE x_MSIZE 3 w)))
 (let ((?x10623 (storage_t x_CALLDATASIZE x_MSIZE 4 w)))
 (= ?x10623 ?x6234))))
 ))
 (let (($x3045 (forall ((n (_ BitVec 6)) )(or (= (stack_t x_CALLDATASIZE x_MSIZE 4 n) (stack_t x_CALLDATASIZE x_MSIZE 3 n)) (bvsle (bvadd (_ bv62 6) (sc_t 3)) n)))
 ))
 (let (($x4921 (= (used_gas_t x_CALLDATASIZE x_MSIZE 4) (+ 3 (used_gas_t x_CALLDATASIZE x_MSIZE 3)))))
 (let ((?x8903 (bvadd (stack_t x_CALLDATASIZE x_MSIZE 3 (bvadd (_ bv63 6) (sc_t 3))) (stack_t x_CALLDATASIZE x_MSIZE 3 (bvadd (_ bv62 6) (sc_t 3))))))
 (let (($x3071 (exc_halt_t 2)))
 (let (($x6277 (or $x3071 (not (= ((_ extract 6 6) (bvadd (_ bv1 7) (concat (_ bv0 1) (sc_t 2)))) (_ bv0 1))))))
 (let (($x6783 (exc_halt_t 3)))
 (let (($x5040 (forall ((w (_ BitVec 256)) )(let ((?x3957 (storage_t x_CALLDATASIZE x_MSIZE 2 w)))
 (let ((?x6234 (storage_t x_CALLDATASIZE x_MSIZE 3 w)))
 (= ?x6234 ?x3957))))
 ))
 (let (($x10780 (forall ((n (_ BitVec 6)) )(or (bvsle (sc_t 2) n) (= (stack_t x_CALLDATASIZE x_MSIZE 3 n) (stack_t x_CALLDATASIZE x_MSIZE 2 n))))
 ))
 (let ((?x5495 (used_gas_t x_CALLDATASIZE x_MSIZE 3)))
 (let (($x9219 (not (= ((_ extract 6 6) (bvadd (_ bv1 7) (concat (_ bv0 1) (sc_t 1)))) (_ bv0 1)))))
 (let (($x3508 (exc_halt_t 1)))
 (let (($x10458 (= $x3071 (or $x3508 $x9219))))
 (let (($x3879 (forall ((w (_ BitVec 256)) )(let ((?x9538 (storage_t x_CALLDATASIZE x_MSIZE 1 w)))
 (let ((?x3957 (storage_t x_CALLDATASIZE x_MSIZE 2 w)))
 (= ?x3957 ?x9538))))
 ))
 (let (($x2972 (forall ((n (_ BitVec 6)) )(let ((?x8347 (sc_t 1)))
 (let (($x8126 (bvsle ?x8347 n)))
 (or $x8126 (= (stack_t x_CALLDATASIZE x_MSIZE 2 n) (stack_t x_CALLDATASIZE x_MSIZE 1 n))))))
 ))
 (let ((?x2714 (sc_t 2)))
 (let (($x1996 (= ?x2714 (bvadd (_ bv1 6) (sc_t 1)))))
 (let ((?x5215 (used_gas_t x_CALLDATASIZE x_MSIZE 2)))
 (let (($x3521 (= $x3508 (or $x56 (not (= ((_ extract 6 6) (bvadd (_ bv1 7) (concat (_ bv0 1) ?x63))) (_ bv0 1)))))))
 (let (($x821 (forall ((w (_ BitVec 256)) )(let ((?x2542 (storage_t x_CALLDATASIZE x_MSIZE 0 w)))
 (let ((?x9538 (storage_t x_CALLDATASIZE x_MSIZE 1 w)))
 (= ?x9538 ?x2542))))
 ))
 (let (($x10575 (forall ((n (_ BitVec 6)) )(let ((?x63 (sc_t 0)))
 (let (($x2525 (bvsle ?x63 n)))
 (or (= (stack_t x_CALLDATASIZE x_MSIZE 1 n) (stack_t x_CALLDATASIZE x_MSIZE 0 n)) $x2525))))
 ))
 (let ((?x8347 (sc_t 1)))
 (let (($x5258 (= ?x8347 (bvadd (_ bv1 6) ?x63))))
 (let (($x5205 (= $x11317 (or (exc_halt_s 4) (not (bvsle (_ bv0 6) (bvadd (_ bv62 6) (sc_s 4))))))))
 (let (($x6908 (forall ((w (_ BitVec 256)) )(let ((?x8506 (storage_s x_CALLDATASIZE x_MSIZE 4 w)))
 (let ((?x5103 (storage_s x_CALLDATASIZE x_MSIZE 5 w)))
 (= ?x5103 ?x8506))))
 ))
 (let (($x6887 (forall ((n (_ BitVec 6)) )(or (bvsle (bvadd (_ bv62 6) (sc_s 4)) n) (= (stack_s x_CALLDATASIZE x_MSIZE 5 n) (stack_s x_CALLDATASIZE x_MSIZE 4 n))))
 ))
 (let (($x9663 (= (used_gas_s x_CALLDATASIZE x_MSIZE 5) (+ 3 (used_gas_s x_CALLDATASIZE x_MSIZE 4)))))
 (let ((?x4699 (bvadd (stack_s x_CALLDATASIZE x_MSIZE 4 (bvadd (_ bv63 6) (sc_s 4))) (stack_s x_CALLDATASIZE x_MSIZE 4 (bvadd (_ bv62 6) (sc_s 4))))))
 (let (($x292 (exc_halt_s 3)))
 (let (($x2461 (or $x292 (not (= ((_ extract 6 6) (bvadd (_ bv1 7) (concat (_ bv0 1) (sc_s 3)))) (_ bv0 1))))))
 (let (($x7172 (exc_halt_s 4)))
 (let (($x10781 (= $x7172 $x2461)))
 (let (($x10941 (forall ((w (_ BitVec 256)) )(let ((?x9652 (storage_s x_CALLDATASIZE x_MSIZE 3 w)))
 (let ((?x8506 (storage_s x_CALLDATASIZE x_MSIZE 4 w)))
 (= ?x8506 ?x9652))))
 ))
 (let (($x7250 (forall ((n (_ BitVec 6)) )(let ((?x275 (sc_s 3)))
 (let (($x6684 (bvsle ?x275 n)))
 (or (= (stack_s x_CALLDATASIZE x_MSIZE 4 n) (stack_s x_CALLDATASIZE x_MSIZE 3 n)) $x6684))))
 ))
 (let ((?x4305 (sc_s 4)))
 (let (($x11051 (= ?x4305 (bvadd (_ bv1 6) (sc_s 3)))))
 (let ((?x3586 (used_gas_s x_CALLDATASIZE x_MSIZE 4)))
 (let (($x5298 (= $x292 (or (exc_halt_s 2) (not (bvsle (_ bv0 6) (bvadd (_ bv62 6) (sc_s 2))))))))
 (let (($x8474 (forall ((w (_ BitVec 256)) )(let ((?x7526 (storage_s x_CALLDATASIZE x_MSIZE 2 w)))
 (let ((?x9652 (storage_s x_CALLDATASIZE x_MSIZE 3 w)))
 (= ?x9652 ?x7526))))
 ))
 (let (($x7019 (forall ((n (_ BitVec 6)) )(or (bvsle (bvadd (_ bv62 6) (sc_s 2)) n) (= (stack_s x_CALLDATASIZE x_MSIZE 3 n) (stack_s x_CALLDATASIZE x_MSIZE 2 n))))
 ))
 (let ((?x218 (sc_s 2)))
 (let ((?x275 (sc_s 3)))
 (let (($x7762 (= ?x275 ?x218)))
 (let ((?x4480 (used_gas_s x_CALLDATASIZE x_MSIZE 3)))
 (let (($x4800 (= (stack_s x_CALLDATASIZE x_MSIZE 3 (bvadd (_ bv62 6) ?x275)) (stack_s x_CALLDATASIZE x_MSIZE 2 (bvadd (_ bv63 6) ?x218)))))
 (let (($x5877 (= (stack_s x_CALLDATASIZE x_MSIZE 3 (bvadd (_ bv63 6) ?x275)) (stack_s x_CALLDATASIZE x_MSIZE 2 (bvadd (_ bv62 6) ?x218)))))
 (let (($x189 (exc_halt_s 1)))
 (let (($x5143 (or $x189 (not (= ((_ extract 6 6) (bvadd (_ bv1 7) (concat (_ bv0 1) (sc_s 1)))) (_ bv0 1))))))
 (let (($x247 (exc_halt_s 2)))
 (let (($x1624 (= $x247 $x5143)))
 (let (($x9316 (forall ((w (_ BitVec 256)) )(let ((?x338 (storage_s x_CALLDATASIZE x_MSIZE 1 w)))
 (let ((?x7526 (storage_s x_CALLDATASIZE x_MSIZE 2 w)))
 (= ?x7526 ?x338))))
 ))
 (let (($x9225 (forall ((n (_ BitVec 6)) )(let ((?x154 (sc_s 1)))
 (let (($x207 (bvsle ?x154 n)))
 (or $x207 (= (stack_s x_CALLDATASIZE x_MSIZE 2 n) (stack_s x_CALLDATASIZE x_MSIZE 1 n))))))
 ))
 (let (($x4974 (= ?x218 (bvadd (_ bv1 6) (sc_s 1)))))
 (let ((?x3912 (used_gas_s x_CALLDATASIZE x_MSIZE 2)))
 (let (($x9459 (= $x189 (or $x57 (not (= ((_ extract 6 6) (bvadd (_ bv1 7) (concat (_ bv0 1) ?x72))) (_ bv0 1)))))))
 (let (($x2571 (forall ((w (_ BitVec 256)) )(let ((?x8304 (storage_s x_CALLDATASIZE x_MSIZE 0 w)))
 (let ((?x338 (storage_s x_CALLDATASIZE x_MSIZE 1 w)))
 (= ?x338 ?x8304))))
 ))
 (let (($x6836 (forall ((n (_ BitVec 6)) )(let ((?x72 (sc_s 0)))
 (let (($x2401 (bvsle ?x72 n)))
 (or (= (stack_s x_CALLDATASIZE x_MSIZE 1 n) (stack_s x_CALLDATASIZE x_MSIZE 0 n)) $x2401))))
 ))
 (let ((?x154 (sc_s 1)))
 (let (($x10097 (= ?x154 (bvadd (_ bv1 6) ?x72))))
 (let (($x3547 (forall ((w (_ BitVec 256)) )(let ((?x8304 (storage_s x_CALLDATASIZE x_MSIZE 0 w)))
 (= ?x8304 (_ bv0 256))))
 ))
 (let (($x11410 (= ?x4463 0)))
 (let (($x4511 (not $x57)))
 (let (($x10470 (= ?x72 (_ bv0 6))))
 (and $x10470 $x4511 $x11410 $x3547 (= (stack_s x_CALLDATASIZE x_MSIZE 1 ?x72) x_CALLDATASIZE) (= (used_gas_s x_CALLDATASIZE x_MSIZE 1) (+ 2 ?x4463)) $x10097 $x6836 $x2571 $x9459 (= (stack_s x_CALLDATASIZE x_MSIZE 2 ?x154) x_MSIZE) (= ?x3912 (+ 2 (used_gas_s x_CALLDATASIZE x_MSIZE 1))) $x4974 $x9225 $x9316 $x1624 $x5877 $x4800 (= ?x4480 (+ 3 ?x3912)) $x7762 $x7019 $x8474 $x5298 (= (stack_s x_CALLDATASIZE x_MSIZE 4 ?x275) x_MSIZE) (= ?x3586 (+ 2 ?x4480)) $x11051 $x7250 $x10941 $x10781 (= (stack_s x_CALLDATASIZE x_MSIZE 5 (bvadd (_ bv63 6) ?x4319)) ?x4699) $x9663 (= ?x4319 (bvadd (_ bv63 6) ?x4305)) $x6887 $x6908 $x5205 (= (stack_t x_CALLDATASIZE x_MSIZE 1 ?x63) x_MSIZE) (= (used_gas_t x_CALLDATASIZE x_MSIZE 1) (+ 2 ?x4675)) $x5258 $x10575 $x821 $x3521 (= (stack_t x_CALLDATASIZE x_MSIZE 2 ?x8347) x_MSIZE) (= ?x5215 (+ 2 (used_gas_t x_CALLDATASIZE x_MSIZE 1))) $x1996 $x2972 $x3879 $x10458 (= (stack_t x_CALLDATASIZE x_MSIZE 3 ?x2714) x_CALLDATASIZE) (= ?x5495 (+ 2 ?x5215)) (= (sc_t 3) (bvadd (_ bv1 6) ?x2714)) $x10780 $x5040 (= $x6783 $x6277) (= (stack_t x_CALLDATASIZE x_MSIZE 4 (bvadd (_ bv63 6) ?x11631)) ?x8903) $x4921 (= ?x11631 (bvadd (_ bv63 6) (sc_t 3))) $x3045 $x424 $x1827 $x73 $x6230 $x58 $x6156 $x5766 (not (and $x2067 $x9692 $x2686 $x9680)))))))))))))))))))))))))))))))))))))))))))))))))))))))))))))))))))))))))))))))))))))))
 )
(check-sat)
(get-proof)
